\ENCODING=ISO-8859-1
\Problem name: ilog.cplex

Maximize
 obj: 406 x(0)#0 + 1088 x(1)#1 + 1076 x(2)#2 + 701 x(3)#3 + 991 x(4)#4
      + 515 x(5)#5 + 677 x(6)#6 + 623 x(7)#7 + 851 x(8)#8 + 498 x(9)#9
      + 513 x(10)#10 + 945 x(11)#11 + 848 x(12)#12 + 432 x(13)#13
      + 1063 x(14)#14 + 552 x(15)#15 + 687 x(16)#16 + 697 x(17)#17
      + 503 x(18)#18 + 920 x(19)#19 + 675 x(20)#20 + 701 x(21)#21
      + 735 x(22)#22 + 1083 x(23)#23 + 836 x(24)#24 + 891 x(25)#25
      + 419 x(26)#26 + 783 x(27)#27 + 532 x(28)#28 + 538 x(29)#29
      + 629 x(30)#30 + 933 x(31)#31 + 670 x(32)#32 + 753 x(33)#33
      + 781 x(34)#34 + 796 x(35)#35 + 630 x(36)#36 + 615 x(37)#37
      + 556 x(38)#38 + 769 x(39)#39 + 651 x(40)#40 + 1095 x(41)#41
      + 725 x(42)#42 + 857 x(43)#43 + 812 x(44)#44 + 996 x(45)#45
      + 699 x(46)#46 + 720 x(47)#47 + 798 x(48)#48 + 1042 x(49)#49
      + 843 x(50)#50 + 864 x(51)#51 + 864 x(52)#52 + 497 x(53)#53
      + 597 x(54)#54 + 562 x(55)#55 + 1109 x(56)#56 + 268 x(57)#57
      + 491 x(58)#58 + 857 x(59)#59 + 408 x(60)#60 + 403 x(61)#61
      + 740 x(62)#62 + 961 x(63)#63 + 671 x(64)#64 + 672 x(65)#65
      + 1073 x(66)#66 + 502 x(67)#67 + 914 x(68)#68 + 808 x(69)#69
      + 808 x(70)#70 + 755 x(71)#71 + 1050 x(72)#72 + 463 x(73)#73
      + 776 x(74)#74 + 1057 x(75)#75 + 625 x(76)#76 + 699 x(77)#77
      + 809 x(78)#78 + 364 x(79)#79 + 646 x(80)#80 + 648 x(81)#81
      + 770 x(82)#82 + 355 x(83)#83 + 623 x(84)#84 + 693 x(85)#85
      + 1028 x(86)#86 + 976 x(87)#87 + 1121 x(88)#88 + 586 x(89)#89
      + 882 x(90)#90 + 653 x(91)#91 + 711 x(92)#92 + 682 x(93)#93
      + 1105 x(94)#94 + 528 x(95)#95 + 820 x(96)#96 + 539 x(97)#97
      + 399 x(98)#98 + 414 x(99)#99 + 793 x(100)#100 + 718 x(101)#101
      + 762 x(102)#102 + 797 x(103)#103 + 584 x(104)#104 + 704 x(105)#105
      + 689 x(106)#106 + 977 x(107)#107 + 898 x(108)#108 + 417 x(109)#109
      + 501 x(110)#110 + 522 x(111)#111 + 785 x(112)#112 + 860 x(113)#113
      + 1030 x(114)#114 + 504 x(115)#115 + 854 x(116)#116 + 544 x(117)#117
      + 781 x(118)#118 + 918 x(119)#119 + 897 x(120)#120 + 837 x(121)#121
      + 859 x(122)#122 + 728 x(123)#123 + 727 x(124)#124 + 808 x(125)#125
      + 1091 x(126)#126 + 1003 x(127)#127 + 1128 x(128)#128 + 814 x(129)#129
      + 639 x(130)#130 + 614 x(131)#131 + 866 x(132)#132 + 295 x(133)#133
      + 738 x(134)#134 + 1162 x(135)#135 + 889 x(136)#136 + 1074 x(137)#137
      + 683 x(138)#138 + 367 x(139)#139 + 958 x(140)#140 + 898 x(141)#141
      + 719 x(142)#142 + 703 x(143)#143 + 809 x(144)#144 + 547 x(145)#145
      + 540 x(146)#146 + 591 x(147)#147 + 792 x(148)#148 + 836 x(149)#149
      + 666 x(150)#150 + 604 x(151)#151 + 608 x(152)#152 + 559 x(153)#153
      + 863 x(154)#154 + 390 x(155)#155 + 567 x(156)#156 + 326 x(157)#157
      + 1046 x(158)#158 + 844 x(159)#159 + 639 x(160)#160 + 781 x(161)#161
      + 460 x(162)#162 + 1079 x(163)#163 + 805 x(164)#164 + 609 x(165)#165
      + 467 x(166)#166 + 1003 x(167)#167 + 998 x(168)#168 + 609 x(169)#169
      + 955 x(170)#170 + 1025 x(171)#171 + 573 x(172)#172 + 747 x(173)#173
      + 713 x(174)#174 + 585 x(175)#175 + 953 x(176)#176 + 859 x(177)#177
      + 819 x(178)#178 + 468 x(179)#179 + 405 x(180)#180 + 668 x(181)#181
      + 791 x(182)#182 + 1158 x(183)#183 + 368 x(184)#184 + 749 x(185)#185
      + 696 x(186)#186 + 728 x(187)#187 + 646 x(188)#188 + 692 x(189)#189
      + 644 x(190)#190 + 862 x(191)#191 + 896 x(192)#192 + 982 x(193)#193
      + 567 x(194)#194 + 880 x(195)#195 + 886 x(196)#196 + 656 x(197)#197
      + 721 x(198)#198 + 730 x(199)#199 + 436 x(200)#200 + 308 x(201)#201
      + 487 x(202)#202 + 408 x(203)#203 + 830 x(204)#204 + 514 x(205)#205
      + 284 x(206)#206 + 468 x(207)#207 + 817 x(208)#208 + 360 x(209)#209
      + 535 x(210)#210 + 813 x(211)#211 + 485 x(212)#212 + 700 x(213)#213
      + 714 x(214)#214 + 757 x(215)#215 + 748 x(216)#216 + 768 x(217)#217
      + 518 x(218)#218 + 871 x(219)#219 + 1200 x(220)#220 + 743 x(221)#221
      + 602 x(222)#222 + 1040 x(223)#223 + 466 x(224)#224 + 1055 x(225)#225
      + 817 x(226)#226 + 881 x(227)#227 + 708 x(228)#228 + 773 x(229)#229
      + 922 x(230)#230 + 1039 x(231)#231 + 826 x(232)#232 + 663 x(233)#233
      + 758 x(234)#234 + 804 x(235)#235 + 568 x(236)#236 + 783 x(237)#237
      + 947 x(238)#238 + 402 x(239)#239 + 702 x(240)#240 + 949 x(241)#241
      + 766 x(242)#242 + 582 x(243)#243 + 518 x(244)#244 + 616 x(245)#245
      + 776 x(246)#246 + 668 x(247)#247 + 820 x(248)#248 + 927 x(249)#249
Subject To
 c1: 59 x(0)#0 + 678 x(1)#1 + 513 x(2)#2 + 937 x(3)#3 + 716 x(4)#4 + 414 x(5)#5
     + 366 x(6)#6 + 712 x(7)#7 + 145 x(8)#8 + 449 x(9)#9 + 623 x(10)#10
     + 997 x(11)#11 + 872 x(12)#12 + 605 x(13)#13 + 373 x(14)#14 + 912 x(15)#15
     + 177 x(16)#16 + 189 x(17)#17 + 437 x(18)#18 + 64 x(19)#19 + 736 x(20)#20
     + 816 x(21)#21 + 882 x(22)#22 + 392 x(23)#23 + 931 x(24)#24 + 256 x(25)#25
     + 315 x(26)#26 + 330 x(27)#27 + 868 x(28)#28 + 468 x(29)#29 + 60 x(30)#30
     + 7 x(31)#31 + 198 x(32)#32 + 532 x(33)#33 + 941 x(34)#34 + 786 x(35)#35
     + 711 x(36)#36 + 872 x(37)#37 + 701 x(38)#38 + 743 x(39)#39 + 354 x(40)#40
     + 871 x(41)#41 + 108 x(42)#42 + 31 x(43)#43 + 609 x(44)#44 + 256 x(45)#45
     + 603 x(46)#46 + 512 x(47)#47 + 836 x(48)#48 + 379 x(49)#49 + 396 x(50)#50
     + 943 x(51)#51 + 661 x(52)#52 + 444 x(53)#53 + 17 x(54)#54 + 597 x(55)#55
     + 760 x(56)#56 + 509 x(57)#57 + 302 x(58)#58 + 849 x(59)#59 + 475 x(60)#60
     + 456 x(61)#61 + 526 x(62)#62 + 395 x(63)#63 + 496 x(64)#64 + 615 x(65)#65
     + 798 x(66)#66 + 757 x(67)#67 + 901 x(68)#68 + 157 x(69)#69 + 138 x(70)#70
     + 375 x(71)#71 + 640 x(72)#72 + 856 x(73)#73 + 499 x(74)#74 + 953 x(75)#75
     + 827 x(76)#76 + 732 x(77)#77 + 142 x(78)#78 + 87 x(79)#79 + 556 x(80)#80
     + 321 x(81)#81 + 964 x(82)#82 + 43 x(83)#83 + 490 x(84)#84 + 152 x(85)#85
     + 771 x(86)#86 + 998 x(87)#87 + 758 x(88)#88 + 976 x(89)#89 + 735 x(90)#90
     + 901 x(91)#91 + 839 x(92)#92 + 219 x(93)#93 + 704 x(94)#94 + 83 x(95)#95
     + 195 x(96)#96 + 903 x(97)#97 + 450 x(98)#98 + 274 x(99)#99
     + 126 x(100)#100 + 837 x(101)#101 + 7 x(102)#102 + 392 x(103)#103
     + 437 x(104)#104 + 211 x(105)#105 + 460 x(106)#106 + 547 x(107)#107
     + 79 x(108)#108 + 570 x(109)#109 + 366 x(110)#110 + 221 x(111)#111
     + 608 x(112)#112 + 232 x(113)#113 + 906 x(114)#114 + 86 x(115)#115
     + 597 x(116)#116 + 787 x(117)#117 + 912 x(118)#118 + 21 x(119)#119
     + 775 x(120)#120 + 626 x(121)#121 + 293 x(122)#122 + 948 x(123)#123
     + 200 x(124)#124 + 259 x(125)#125 + 795 x(126)#126 + 677 x(127)#127
     + 527 x(128)#128 + 387 x(129)#129 + 297 x(130)#130 + 888 x(131)#131
     + 834 x(132)#132 + 113 x(133)#133 + 281 x(134)#134 + 626 x(135)#135
     + 704 x(136)#136 + 833 x(137)#137 + 382 x(138)#138 + 725 x(139)#139
     + 292 x(140)#140 + 778 x(141)#141 + 834 x(142)#142 + 10 x(143)#143
     + 113 x(144)#144 + 415 x(145)#145 + 489 x(146)#146 + 455 x(147)#147
     + 432 x(148)#148 + 902 x(149)#149 + 623 x(150)#150 + 600 x(151)#151
     + 274 x(152)#152 + 978 x(153)#153 + 386 x(154)#154 + 815 x(155)#155
     + 638 x(156)#156 + 16 x(157)#157 + 646 x(158)#158 + 995 x(159)#159
     + 874 x(160)#160 + 611 x(161)#161 + 237 x(162)#162 + 977 x(163)#163
     + 242 x(164)#164 + 120 x(165)#165 + 515 x(166)#166 + 885 x(167)#167
     + 249 x(168)#168 + 97 x(169)#169 + 994 x(170)#170 + 991 x(171)#171
     + 698 x(172)#172 + 459 x(173)#173 + 915 x(174)#174 + 526 x(175)#175
     + 485 x(176)#176 + 654 x(177)#177 + 239 x(178)#178 + 822 x(179)#179
     + 282 x(180)#180 + 216 x(181)#181 + 897 x(182)#182 + 880 x(183)#183
     + 247 x(184)#184 + 568 x(185)#185 + 452 x(186)#186 + 685 x(187)#187
     + 770 x(188)#188 + 562 x(189)#189 + 219 x(190)#190 + 827 x(191)#191
     + 845 x(192)#192 + 208 x(193)#193 + 660 x(194)#194 + 276 x(195)#195
     + 173 x(196)#196 + 627 x(197)#197 + 979 x(198)#198 + 881 x(199)#199
     + 640 x(200)#200 + 700 x(201)#201 + 680 x(202)#202 + 209 x(203)#203
     + 601 x(204)#204 + 653 x(205)#205 + 161 x(206)#206 + 281 x(207)#207
     + 526 x(208)#208 + 590 x(209)#209 + 181 x(210)#210 + 450 x(211)#211
     + 508 x(212)#212 + 849 x(213)#213 + 909 x(214)#214 + 214 x(215)#215
     + 535 x(216)#216 + 717 x(217)#217 + 195 x(218)#218 + 104 x(219)#219
     + 819 x(220)#220 + 906 x(221)#221 + 120 x(222)#222 + 942 x(223)#223
     + 433 x(224)#224 + 753 x(225)#225 + 991 x(226)#226 + 648 x(227)#227
     + 523 x(228)#228 + 105 x(229)#229 + 754 x(230)#230 + 374 x(231)#231
     + 366 x(232)#232 + 121 x(233)#233 + 928 x(234)#234 + 603 x(235)#235
     + 610 x(236)#236 + 105 x(237)#237 + 3 x(238)#238 + 67 x(239)#239
     + 491 x(240)#240 + 111 x(241)#241 + 603 x(242)#242 + 269 x(243)#243
     + 4 x(244)#244 + 554 x(245)#245 + 485 x(246)#246 + 232 x(247)#247
     + 40 x(248)#248 + 832 x(249)#249 <= 65290
 c2: 49 x(0)#0 + 439 x(1)#1 + 313 x(2)#2 + 224 x(3)#3 + 837 x(4)#4 + 853 x(5)#5
     + 925 x(6)#6 + 447 x(7)#7 + 381 x(8)#8 + 15 x(9)#9 + 724 x(10)#10
     + 659 x(11)#11 + 568 x(12)#12 + 99 x(13)#13 + 602 x(14)#14 + 393 x(15)#15
     + 417 x(16)#16 + 452 x(17)#17 + 404 x(18)#18 + 422 x(19)#19 + 754 x(20)#20
     + 347 x(21)#21 + 92 x(22)#22 + 888 x(23)#23 + 824 x(24)#24 + 261 x(25)#25
     + 276 x(26)#26 + 554 x(27)#27 + 23 x(28)#28 + 239 x(29)#29 + 748 x(30)#30
     + 802 x(31)#31 + 708 x(32)#32 + 722 x(33)#33 + 84 x(34)#34 + 91 x(35)#35
     + 508 x(36)#36 + 46 x(37)#37 + 225 x(38)#38 + 969 x(39)#39 + 783 x(40)#40
     + 191 x(41)#41 + 48 x(42)#42 + 560 x(43)#43 + 332 x(44)#44 + 466 x(45)#45
     + 516 x(46)#46 + 794 x(47)#47 + 628 x(48)#48 + 702 x(49)#49 + 270 x(50)#50
     + 149 x(51)#51 + 70 x(52)#52 + 99 x(53)#53 + 729 x(54)#54 + 145 x(55)#55
     + 125 x(56)#56 + 4 x(57)#57 + 131 x(58)#58 + 474 x(59)#59 + 107 x(60)#60
     + 51 x(61)#61 + 170 x(62)#62 + 602 x(63)#63 + 668 x(64)#64 + 736 x(65)#65
     + 341 x(66)#66 + 19 x(67)#67 + 379 x(68)#68 + 450 x(69)#69 + 693 x(70)#70
     + 87 x(71)#71 + 109 x(72)#72 + 49 x(73)#73 + 608 x(74)#74 + 784 x(75)#75
     + 535 x(76)#76 + 162 x(77)#77 + 660 x(78)#78 + 695 x(79)#79
     + 1000 x(80)#80 + 120 x(81)#81 + 499 x(82)#82 + 229 x(83)#83
     + 558 x(84)#84 + 273 x(85)#85 + 490 x(86)#86 + 659 x(87)#87 + 586 x(88)#88
     + 736 x(89)#89 + 681 x(90)#90 + 801 x(91)#91 + 435 x(92)#92 + 692 x(93)#93
     + 970 x(94)#94 + 456 x(95)#95 + 387 x(96)#96 + 467 x(97)#97 + 290 x(98)#98
     + 153 x(99)#99 + 811 x(100)#100 + 273 x(101)#101 + 682 x(102)#102
     + 818 x(103)#103 + 71 x(104)#104 + 126 x(105)#105 + 818 x(106)#106
     + 404 x(107)#107 + 545 x(108)#108 + 314 x(109)#109 + 578 x(110)#110
     + 246 x(111)#111 + 774 x(112)#112 + 297 x(113)#113 + 288 x(114)#114
     + 542 x(115)#115 + 403 x(116)#116 + 263 x(117)#117 + 920 x(118)#118
     + 989 x(119)#119 + 14 x(120)#120 + 218 x(121)#121 + 646 x(122)#122
     + 264 x(123)#123 + 581 x(124)#124 + 698 x(125)#125 + 269 x(126)#126
     + 141 x(127)#127 + 583 x(128)#128 + 953 x(129)#129 + 749 x(130)#130
     + 572 x(131)#131 + 115 x(132)#132 + 163 x(133)#133 + 927 x(134)#134
     + 497 x(135)#135 + 108 x(136)#136 + 476 x(137)#137 + 400 x(138)#138
     + 195 x(139)#139 + 681 x(140)#140 + 795 x(141)#141 + 966 x(142)#142
     + 79 x(143)#143 + 454 x(144)#144 + 955 x(145)#145 + 70 x(146)#146
     + 369 x(147)#147 + 437 x(148)#148 + 507 x(149)#149 + 17 x(150)#150
     + 711 x(151)#151 + 250 x(152)#152 + 106 x(153)#153 + 283 x(154)#154
     + 454 x(155)#155 + 769 x(156)#156 + 509 x(157)#157 + 641 x(158)#158
     + 985 x(159)#159 + 8 x(160)#160 + 60 x(161)#161 + 605 x(162)#162
     + 525 x(163)#163 + 180 x(164)#164 + 512 x(165)#165 + 155 x(166)#166
     + 709 x(167)#167 + 693 x(168)#168 + 588 x(169)#169 + 913 x(170)#170
     + 638 x(171)#171 + 304 x(172)#172 + 222 x(173)#173 + 745 x(174)#174
     + 450 x(175)#175 + 504 x(176)#176 + 940 x(177)#177 + 422 x(178)#178
     + 158 x(179)#179 + 372 x(180)#180 + 583 x(181)#181 + 703 x(182)#182
     + 954 x(183)#183 + 630 x(184)#184 + 417 x(185)#185 + 686 x(186)#186
     + 131 x(187)#187 + 569 x(188)#188 + 845 x(189)#189 + 352 x(190)#190
     + 867 x(191)#191 + 912 x(192)#192 + 314 x(193)#193 + 819 x(194)#194
     + 659 x(195)#195 + 774 x(196)#196 + 151 x(197)#197 + 16 x(198)#198
     + 893 x(199)#199 + 257 x(200)#200 + 238 x(201)#201 + 221 x(202)#202
     + 773 x(203)#203 + 726 x(204)#204 + 649 x(205)#205 + 290 x(206)#206
     + 97 x(207)#207 + 419 x(208)#208 + 158 x(209)#209 + 919 x(210)#210
     + 756 x(211)#211 + 103 x(212)#212 + 113 x(213)#213 + 122 x(214)#214
     + 398 x(215)#215 + 753 x(216)#216 + 757 x(217)#217 + 257 x(218)#218
     + 224 x(219)#219 + 499 x(220)#220 + 170 x(221)#221 + 353 x(222)#222
     + 147 x(223)#223 + 37 x(224)#224 + 301 x(225)#225 + 885 x(226)#226
     + 23 x(227)#227 + 81 x(228)#228 + 194 x(229)#229 + 846 x(230)#230
     + 202 x(231)#231 + 570 x(232)#232 + 98 x(233)#233 + 797 x(234)#234
     + 646 x(235)#235 + 602 x(236)#236 + 877 x(237)#237 + 897 x(238)#238
     + 305 x(239)#239 + 728 x(240)#240 + 639 x(241)#241 + 513 x(242)#242
     + 947 x(243)#243 + 567 x(244)#244 + 162 x(245)#245 + 568 x(246)#246
     + 738 x(247)#247 + 717 x(248)#248 + 559 x(249)#249 <= 58316
 c3: 235 x(0)#0 + 597 x(1)#1 + 888 x(2)#2 + 619 x(3)#3 + 52 x(4)#4 + 42 x(5)#5
     + 160 x(6)#6 + 731 x(7)#7 + 676 x(8)#8 + 368 x(9)#9 + 164 x(10)#10
     + 960 x(11)#11 + 971 x(12)#12 + 875 x(13)#13 + 822 x(14)#14 + 432 x(15)#15
     + 880 x(16)#16 + 939 x(17)#17 + 237 x(18)#18 + 451 x(19)#19 + 550 x(20)#20
     + 916 x(21)#21 + 687 x(22)#22 + 240 x(23)#23 + 692 x(24)#24 + 916 x(25)#25
     + 651 x(26)#26 + 306 x(27)#27 + 98 x(28)#28 + 758 x(29)#29 + 879 x(30)#30
     + 919 x(31)#31 + 933 x(32)#32 + 513 x(33)#33 + 247 x(34)#34 + 842 x(35)#35
     + 777 x(36)#36 + 15 x(37)#37 + 16 x(38)#38 + 373 x(39)#39 + 65 x(40)#40
     + 846 x(41)#41 + 432 x(42)#42 + 209 x(43)#43 + 873 x(44)#44 + 705 x(45)#45
     + 541 x(46)#46 + 560 x(47)#47 + 317 x(48)#48 + 732 x(49)#49 + 583 x(50)#50
     + 353 x(51)#51 + 993 x(52)#52 + 553 x(53)#53 + 583 x(54)#54 + 713 x(55)#55
     + 784 x(56)#56 + 14 x(57)#57 + 356 x(58)#58 + 793 x(59)#59 + 385 x(60)#60
     + 187 x(61)#61 + 866 x(62)#62 + 453 x(63)#63 + 197 x(64)#64 + 868 x(65)#65
     + 201 x(66)#66 + 462 x(67)#67 + 617 x(68)#68 + 83 x(69)#69 + 910 x(70)#70
     + 427 x(71)#71 + 835 x(72)#72 + 10 x(73)#73 + 708 x(74)#74 + 980 x(75)#75
     + 718 x(76)#76 + 963 x(77)#77 + 449 x(78)#78 + 234 x(79)#79 + 262 x(80)#80
     + 40 x(81)#81 + 704 x(82)#82 + 80 x(83)#83 + 819 x(84)#84 + 625 x(85)#85
     + 665 x(86)#86 + 634 x(87)#87 + 958 x(88)#88 + 529 x(89)#89 + 562 x(90)#90
     + 151 x(91)#91 + 628 x(92)#92 + 912 x(93)#93 + 564 x(94)#94 + 672 x(95)#95
     + 485 x(96)#96 + 31 x(97)#97 + 22 x(98)#98 + 78 x(99)#99 + 507 x(100)#100
     + 813 x(101)#101 + 874 x(102)#102 + 613 x(103)#103 + 234 x(104)#104
     + 811 x(105)#105 + 465 x(106)#106 + 523 x(107)#107 + 900 x(108)#108
     + 9 x(109)#109 + 296 x(110)#110 + 494 x(111)#111 + 707 x(112)#112
     + 47 x(113)#113 + 775 x(114)#114 + 568 x(115)#115 + 379 x(116)#116
     + 324 x(117)#117 + 749 x(118)#118 + 403 x(119)#119 + 380 x(120)#120
     + 846 x(121)#121 + 797 x(122)#122 + 348 x(123)#123 + 643 x(124)#124
     + 998 x(125)#125 + 822 x(126)#126 + 986 x(127)#127 + 555 x(128)#128
     + 233 x(129)#129 + 326 x(130)#130 + 732 x(131)#131 + 678 x(132)#132
     + 21 x(133)#133 + 204 x(134)#134 + 547 x(135)#135 + 191 x(136)#136
     + 674 x(137)#137 + 751 x(138)#138 + 292 x(139)#139 + 267 x(140)#140
     + 988 x(141)#141 + 634 x(142)#142 + 740 x(143)#143 + 410 x(144)#144
     + 802 x(145)#145 + 925 x(146)#146 + 265 x(147)#147 + 481 x(148)#148
     + 624 x(149)#149 + 378 x(150)#150 + 84 x(151)#151 + 364 x(152)#152
     + 357 x(153)#153 + 932 x(154)#154 + 96 x(155)#155 + 6 x(156)#156
     + 132 x(157)#157 + 824 x(158)#158 + 554 x(159)#159 + 241 x(160)#160
     + 410 x(161)#161 + 144 x(162)#162 + 742 x(163)#163 + 981 x(164)#164
     + 612 x(165)#165 + 691 x(166)#166 + 669 x(167)#167 + 96 x(168)#168
     + 118 x(169)#169 + 566 x(170)#170 + 488 x(171)#171 + 49 x(172)#172
     + 291 x(173)#173 + 441 x(174)#174 + 268 x(175)#175 + 276 x(176)#176
     + 824 x(177)#177 + 89 x(178)#178 + 59 x(179)#179 + 317 x(180)#180
     + 592 x(181)#181 + 593 x(182)#182 + 565 x(183)#183 + 525 x(184)#184
     + 549 x(185)#185 + 792 x(186)#186 + 83 x(187)#187 + 214 x(188)#188
     + 482 x(189)#189 + 945 x(190)#190 + 968 x(191)#191 + 446 x(192)#192
     + 363 x(193)#193 + 157 x(194)#194 + 869 x(195)#195 + 253 x(196)#196
     + 506 x(197)#197 + 392 x(198)#198 + 83 x(199)#199 + 255 x(200)#200
     + 136 x(201)#201 + 485 x(202)#202 + 288 x(203)#203 + 8 x(204)#204
     + 167 x(205)#205 + 259 x(206)#206 + 661 x(207)#207 + 978 x(208)#208
     + 34 x(209)#209 + 621 x(210)#210 + 885 x(211)#211 + 71 x(212)#212
     + 769 x(213)#213 + 466 x(214)#214 + 790 x(215)#215 + 248 x(216)#216
     + 78 x(217)#217 + 241 x(218)#218 + 205 x(219)#219 + 681 x(220)#220
     + 305 x(221)#221 + 594 x(222)#222 + 643 x(223)#223 + 147 x(224)#224
     + 132 x(225)#225 + 388 x(226)#226 + 618 x(227)#227 + 23 x(228)#228
     + 405 x(229)#229 + 627 x(230)#230 + 645 x(231)#231 + 739 x(232)#232
     + 583 x(233)#233 + 733 x(234)#234 + 842 x(235)#235 + 518 x(236)#236
     + 111 x(237)#237 + 129 x(238)#238 + 169 x(239)#239 + 27 x(240)#240
     + 983 x(241)#241 + 519 x(242)#242 + 49 x(243)#243 + 616 x(244)#244
     + 253 x(245)#245 + 564 x(246)#246 + 135 x(247)#247 + 59 x(248)#248
     + 305 x(249)#249 <= 61360
 c4: 630 x(0)#0 + 638 x(1)#1 + 585 x(2)#2 + 105 x(3)#3 + 442 x(4)#4
     + 589 x(5)#5 + 854 x(6)#6 + 84 x(7)#7 + 279 x(8)#8 + 467 x(9)#9
     + 740 x(10)#10 + 568 x(11)#11 + 979 x(12)#12 + 411 x(13)#13 + 692 x(14)#14
     + 19 x(15)#15 + 950 x(16)#16 + 511 x(17)#17 + 717 x(18)#18 + 404 x(19)#19
     + 354 x(20)#20 + 326 x(21)#21 + 7 x(22)#22 + 696 x(23)#23 + 895 x(24)#24
     + 670 x(25)#25 + 278 x(26)#26 + 460 x(27)#27 + 721 x(28)#28 + 264 x(29)#29
     + 256 x(30)#30 + 989 x(31)#31 + 584 x(32)#32 + 461 x(33)#33 + 717 x(34)#34
     + 936 x(35)#35 + 659 x(36)#36 + 940 x(37)#37 + 225 x(38)#38 + 59 x(39)#39
     + 611 x(40)#40 + 873 x(41)#41 + 307 x(42)#42 + 32 x(43)#43 + 761 x(44)#44
     + 725 x(45)#45 + 330 x(46)#46 + 405 x(47)#47 + 351 x(48)#48 + 167 x(49)#49
     + 660 x(50)#50 + 877 x(51)#51 + 735 x(52)#52 + 334 x(53)#53 + 39 x(54)#54
     + 60 x(55)#55 + 974 x(56)#56 + 75 x(57)#57 + 539 x(58)#58 + 53 x(59)#59
     + 262 x(60)#60 + 736 x(61)#61 + 974 x(62)#62 + 523 x(63)#63 + 215 x(64)#64
     + 268 x(65)#65 + 861 x(66)#66 + 177 x(67)#67 + 675 x(68)#68 + 658 x(69)#69
     + 683 x(70)#70 + 298 x(71)#71 + 587 x(72)#72 + 500 x(73)#73 + 852 x(74)#74
     + 855 x(75)#75 + 316 x(76)#76 + 290 x(77)#77 + 478 x(78)#78 + 333 x(79)#79
     + 338 x(80)#80 + 890 x(81)#81 + 324 x(82)#82 + 147 x(83)#83 + 568 x(84)#84
     + 447 x(85)#85 + 385 x(86)#86 + 131 x(87)#87 + 164 x(88)#88 + 34 x(89)#89
     + 870 x(90)#90 + 16 x(91)#91 + 550 x(92)#92 + 169 x(93)#93 + 189 x(94)#94
     + 234 x(95)#95 + 674 x(96)#96 + 394 x(97)#97 + 258 x(98)#98 + 449 x(99)#99
     + 186 x(100)#100 + 293 x(101)#101 + 956 x(102)#102 + 208 x(103)#103
     + 53 x(104)#104 + 524 x(105)#105 + 423 x(106)#106 + 949 x(107)#107
     + 254 x(108)#108 + 708 x(109)#109 + 494 x(110)#110 + 634 x(111)#111
     + 420 x(112)#112 + 968 x(113)#113 + 907 x(114)#114 + 612 x(115)#115
     + 413 x(116)#116 + 282 x(117)#117 + 543 x(118)#118 + 670 x(119)#119
     + 985 x(120)#120 + 57 x(121)#121 + 664 x(122)#122 + 118 x(123)#123
     + 903 x(124)#124 + 74 x(125)#125 + 645 x(126)#126 + 386 x(127)#127
     + 834 x(128)#128 + 614 x(129)#129 + 66 x(130)#130 + 163 x(131)#131
     + 386 x(132)#132 + 62 x(133)#133 + 148 x(134)#134 + 830 x(135)#135
     + 667 x(136)#136 + 561 x(137)#137 + 524 x(138)#138 + 169 x(139)#139
     + 677 x(140)#140 + 865 x(141)#141 + 44 x(142)#142 + 468 x(143)#143
     + 992 x(144)#144 + 201 x(145)#145 + 67 x(146)#146 + 995 x(147)#147
     + 629 x(148)#148 + 584 x(149)#149 + 152 x(150)#150 + 301 x(151)#151
     + 301 x(152)#152 + 170 x(153)#153 + 535 x(154)#154 + 374 x(155)#155
     + 210 x(156)#156 + 786 x(157)#157 + 462 x(158)#158 + 108 x(159)#159
     + 375 x(160)#160 + 217 x(161)#161 + 135 x(162)#162 + 812 x(163)#163
     + 497 x(164)#164 + 701 x(165)#165 + 132 x(166)#166 + 907 x(167)#167
     + 802 x(168)#168 + 971 x(169)#169 + 580 x(170)#170 + 995 x(171)#171
     + 186 x(172)#172 + 547 x(173)#173 + 399 x(174)#174 + 467 x(175)#175
     + 92 x(176)#176 + 597 x(177)#177 + 379 x(178)#178 + 30 x(179)#179
     + 769 x(180)#180 + 151 x(181)#181 + 620 x(182)#182 + 351 x(183)#183
     + 159 x(184)#184 + 67 x(185)#185 + 485 x(186)#186 + 425 x(187)#187
     + 319 x(188)#188 + 2 x(189)#189 + 297 x(190)#190 + 1000 x(191)#191
     + 161 x(192)#192 + 932 x(193)#193 + 536 x(194)#194 + 142 x(195)#195
     + 936 x(196)#196 + 379 x(197)#197 + 386 x(198)#198 + 351 x(199)#199
     + 181 x(200)#200 + 90 x(201)#201 + 237 x(202)#202 + 388 x(203)#203
     + 412 x(204)#204 + 360 x(205)#205 + 135 x(206)#206 + 665 x(207)#207
     + 105 x(208)#208 + 372 x(209)#209 + 107 x(210)#210 + 469 x(211)#211
     + 184 x(212)#212 + 448 x(213)#213 + 963 x(214)#214 + 548 x(215)#215
     + 487 x(216)#216 + 726 x(217)#217 + 273 x(218)#218 + 622 x(219)#219
     + 877 x(220)#220 + 779 x(221)#221 + 645 x(222)#222 + 293 x(223)#223
     + 399 x(224)#224 + 997 x(225)#225 + 29 x(226)#226 + 449 x(227)#227
     + 222 x(228)#228 + 782 x(229)#229 + 696 x(230)#230 + 939 x(231)#231
     + 634 x(232)#232 + 230 x(233)#233 + 65 x(234)#234 + 396 x(235)#235
     + 484 x(236)#236 + 41 x(237)#237 + 901 x(238)#238 + 491 x(239)#239
     + 830 x(240)#240 + 254 x(241)#241 + 507 x(242)#242 + 153 x(243)#243
     + 492 x(244)#244 + 227 x(245)#245 + 733 x(246)#246 + 252 x(247)#247
     + 559 x(248)#248 + 793 x(249)#249 <= 58663
 c5: 347 x(0)#0 + 869 x(1)#1 + 725 x(2)#2 + 995 x(3)#3 + 538 x(4)#4
     + 619 x(5)#5 + 714 x(6)#6 + 861 x(7)#7 + 294 x(8)#8 + 580 x(9)#9
     + 300 x(10)#10 + 263 x(11)#11 + 149 x(12)#12 + 151 x(13)#13 + 409 x(14)#14
     + 678 x(15)#15 + 624 x(16)#16 + 313 x(17)#17 + 26 x(18)#18 + 919 x(19)#19
     + 647 x(20)#20 + 315 x(21)#21 + 716 x(22)#22 + 947 x(23)#23 + 219 x(24)#24
     + 401 x(25)#25 + 267 x(26)#26 + 136 x(27)#27 + 859 x(28)#28 + 297 x(29)#29
     + 61 x(30)#30 + 429 x(31)#31 + 539 x(32)#32 + 391 x(33)#33 + 806 x(34)#34
     + 427 x(35)#35 + 384 x(36)#36 + 547 x(37)#37 + 841 x(38)#38 + 949 x(39)#39
     + 468 x(40)#40 + 863 x(41)#41 + 914 x(42)#42 + 998 x(43)#43 + 441 x(44)#44
     + 633 x(45)#45 + 636 x(46)#46 + 468 x(47)#47 + 856 x(48)#48 + 758 x(49)#49
     + 461 x(50)#50 + 144 x(51)#51 + 167 x(52)#52 + 905 x(53)#53 + 555 x(54)#54
     + 826 x(55)#55 + 876 x(56)#56 + 389 x(57)#57 + 653 x(58)#58 + 879 x(59)#59
     + 500 x(60)#60 + 144 x(61)#61 + 794 x(62)#62 + 770 x(63)#63 + 209 x(64)#64
     + 196 x(65)#65 + 722 x(66)#66 + 140 x(67)#67 + 359 x(68)#68 + 812 x(69)#69
     + 165 x(70)#70 + 659 x(71)#71 + 678 x(72)#72 + 251 x(73)#73 + 71 x(74)#74
     + 291 x(75)#75 + 573 x(76)#76 + 668 x(77)#77 + 553 x(78)#78 + 71 x(79)#79
     + 698 x(80)#80 + 592 x(81)#81 + 407 x(82)#82 + 533 x(83)#83 + 92 x(84)#84
     + 427 x(85)#85 + 787 x(86)#86 + 317 x(87)#87 + 797 x(88)#88 + 542 x(89)#89
     + 756 x(90)#90 + 592 x(91)#91 + 728 x(92)#92 + 427 x(93)#93 + 973 x(94)#94
     + 928 x(95)#95 + 870 x(96)#96 + 538 x(97)#97 + 407 x(98)#98 + 628 x(99)#99
     + 248 x(100)#100 + 550 x(101)#101 + 950 x(102)#102 + 136 x(103)#103
     + 668 x(104)#104 + 943 x(105)#105 + 509 x(106)#106 + 733 x(107)#107
     + 847 x(108)#108 + 237 x(109)#109 + 49 x(110)#110 + 702 x(111)#111
     + 7 x(112)#112 + 769 x(113)#113 + 45 x(114)#114 + 422 x(115)#115
     + 822 x(116)#116 + 988 x(117)#117 + 731 x(118)#118 + 282 x(119)#119
     + 990 x(120)#120 + 300 x(121)#121 + 710 x(122)#122 + 395 x(123)#123
     + 383 x(124)#124 + 177 x(125)#125 + 927 x(126)#126 + 455 x(127)#127
     + 953 x(128)#128 + 532 x(129)#129 + 526 x(130)#130 + 676 x(131)#131
     + 370 x(132)#132 + 298 x(133)#133 + 804 x(134)#134 + 964 x(135)#135
     + 942 x(136)#136 + 923 x(137)#137 + 994 x(138)#138 + 350 x(139)#139
     + 409 x(140)#140 + 726 x(141)#141 + 659 x(142)#142 + 323 x(143)#143
     + 94 x(144)#144 + 257 x(145)#145 + 522 x(146)#146 + 579 x(147)#147
     + 365 x(148)#148 + 626 x(149)#149 + 124 x(150)#150 + 563 x(151)#151
     + 383 x(152)#152 + 725 x(153)#153 + 147 x(154)#154 + 143 x(155)#155
     + 377 x(156)#156 + 131 x(157)#157 + 328 x(158)#158 + 183 x(159)#159
     + 650 x(160)#160 + 999 x(161)#161 + 470 x(162)#162 + 196 x(163)#163
     + 652 x(164)#164 + 64 x(165)#165 + 286 x(166)#166 + 7 x(167)#167
     + 924 x(168)#168 + 193 x(169)#169 + 790 x(170)#170 + 221 x(171)#171
     + 706 x(172)#172 + 383 x(173)#173 + 265 x(174)#174 + 332 x(175)#175
     + 959 x(176)#176 + 39 x(177)#177 + 548 x(178)#178 + 60 x(179)#179
     + 34 x(180)#180 + 477 x(181)#181 + 278 x(182)#182 + 974 x(183)#183
     + 128 x(184)#184 + 60 x(185)#185 + 965 x(186)#186 + 910 x(187)#187
     + 463 x(188)#188 + 121 x(189)#189 + 800 x(190)#190 + 384 x(191)#191
     + 537 x(192)#192 + 854 x(193)#193 + 200 x(194)#194 + 924 x(195)#195
     + 793 x(196)#196 + 719 x(197)#197 + 533 x(198)#198 + 32 x(199)#199
     + 726 x(200)#200 + 374 x(201)#201 + 658 x(202)#202 + 18 x(203)#203
     + 258 x(204)#204 + 463 x(205)#205 + 393 x(206)#206 + 410 x(207)#207
     + 58 x(208)#208 + 187 x(209)#209 + 260 x(210)#210 + 817 x(211)#211
     + 980 x(212)#212 + 149 x(213)#213 + 920 x(214)#214 + 308 x(215)#215
     + 602 x(216)#216 + 935 x(217)#217 + 90 x(218)#218 + 735 x(219)#219
     + 696 x(220)#220 + 217 x(221)#221 + 78 x(222)#222 + 842 x(223)#223
     + 182 x(224)#224 + 790 x(225)#225 + 636 x(226)#226 + 259 x(227)#227
     + 630 x(228)#228 + 535 x(229)#229 + 97 x(230)#230 + 625 x(231)#231
     + 149 x(232)#232 + 268 x(233)#233 + 158 x(234)#234 + 308 x(235)#235
     + 194 x(236)#236 + 319 x(237)#237 + 987 x(238)#238 + 142 x(239)#239
     + 304 x(240)#240 + 790 x(241)#241 + 898 x(242)#242 + 626 x(243)#243
     + 890 x(244)#244 + 419 x(245)#245 + 427 x(246)#246 + 870 x(247)#247
     + 795 x(248)#248 + 462 x(249)#249 <= 63971
Bounds
 0 <= x(0)#0 <= 1
 0 <= x(1)#1 <= 1
 0 <= x(2)#2 <= 1
 0 <= x(3)#3 <= 1
 0 <= x(4)#4 <= 1
 0 <= x(5)#5 <= 1
 0 <= x(6)#6 <= 1
 0 <= x(7)#7 <= 1
 0 <= x(8)#8 <= 1
 0 <= x(9)#9 <= 1
 0 <= x(10)#10 <= 1
 0 <= x(11)#11 <= 1
 0 <= x(12)#12 <= 1
 0 <= x(13)#13 <= 1
 0 <= x(14)#14 <= 1
 0 <= x(15)#15 <= 1
 0 <= x(16)#16 <= 1
 0 <= x(17)#17 <= 1
 0 <= x(18)#18 <= 1
 0 <= x(19)#19 <= 1
 0 <= x(20)#20 <= 1
 0 <= x(21)#21 <= 1
 0 <= x(22)#22 <= 1
 0 <= x(23)#23 <= 1
 0 <= x(24)#24 <= 1
 0 <= x(25)#25 <= 1
 0 <= x(26)#26 <= 1
 0 <= x(27)#27 <= 1
 0 <= x(28)#28 <= 1
 0 <= x(29)#29 <= 1
 0 <= x(30)#30 <= 1
 0 <= x(31)#31 <= 1
 0 <= x(32)#32 <= 1
 0 <= x(33)#33 <= 1
 0 <= x(34)#34 <= 1
 0 <= x(35)#35 <= 1
 0 <= x(36)#36 <= 1
 0 <= x(37)#37 <= 1
 0 <= x(38)#38 <= 1
 0 <= x(39)#39 <= 1
 0 <= x(40)#40 <= 1
 0 <= x(41)#41 <= 1
 0 <= x(42)#42 <= 1
 0 <= x(43)#43 <= 1
 0 <= x(44)#44 <= 1
 0 <= x(45)#45 <= 1
 0 <= x(46)#46 <= 1
 0 <= x(47)#47 <= 1
 0 <= x(48)#48 <= 1
 0 <= x(49)#49 <= 1
 0 <= x(50)#50 <= 1
 0 <= x(51)#51 <= 1
 0 <= x(52)#52 <= 1
 0 <= x(53)#53 <= 1
 0 <= x(54)#54 <= 1
 0 <= x(55)#55 <= 1
 0 <= x(56)#56 <= 1
 0 <= x(57)#57 <= 1
 0 <= x(58)#58 <= 1
 0 <= x(59)#59 <= 1
 0 <= x(60)#60 <= 1
 0 <= x(61)#61 <= 1
 0 <= x(62)#62 <= 1
 0 <= x(63)#63 <= 1
 0 <= x(64)#64 <= 1
 0 <= x(65)#65 <= 1
 0 <= x(66)#66 <= 1
 0 <= x(67)#67 <= 1
 0 <= x(68)#68 <= 1
 0 <= x(69)#69 <= 1
 0 <= x(70)#70 <= 1
 0 <= x(71)#71 <= 1
 0 <= x(72)#72 <= 1
 0 <= x(73)#73 <= 1
 0 <= x(74)#74 <= 1
 0 <= x(75)#75 <= 1
 0 <= x(76)#76 <= 1
 0 <= x(77)#77 <= 1
 0 <= x(78)#78 <= 1
 0 <= x(79)#79 <= 1
 0 <= x(80)#80 <= 1
 0 <= x(81)#81 <= 1
 0 <= x(82)#82 <= 1
 0 <= x(83)#83 <= 1
 0 <= x(84)#84 <= 1
 0 <= x(85)#85 <= 1
 0 <= x(86)#86 <= 1
 0 <= x(87)#87 <= 1
 0 <= x(88)#88 <= 1
 0 <= x(89)#89 <= 1
 0 <= x(90)#90 <= 1
 0 <= x(91)#91 <= 1
 0 <= x(92)#92 <= 1
 0 <= x(93)#93 <= 1
 0 <= x(94)#94 <= 1
 0 <= x(95)#95 <= 1
 0 <= x(96)#96 <= 1
 0 <= x(97)#97 <= 1
 0 <= x(98)#98 <= 1
 0 <= x(99)#99 <= 1
 0 <= x(100)#100 <= 1
 0 <= x(101)#101 <= 1
 0 <= x(102)#102 <= 1
 0 <= x(103)#103 <= 1
 0 <= x(104)#104 <= 1
 0 <= x(105)#105 <= 1
 0 <= x(106)#106 <= 1
 0 <= x(107)#107 <= 1
 0 <= x(108)#108 <= 1
 0 <= x(109)#109 <= 1
 0 <= x(110)#110 <= 1
 0 <= x(111)#111 <= 1
 0 <= x(112)#112 <= 1
 0 <= x(113)#113 <= 1
 0 <= x(114)#114 <= 1
 0 <= x(115)#115 <= 1
 0 <= x(116)#116 <= 1
 0 <= x(117)#117 <= 1
 0 <= x(118)#118 <= 1
 0 <= x(119)#119 <= 1
 0 <= x(120)#120 <= 1
 0 <= x(121)#121 <= 1
 0 <= x(122)#122 <= 1
 0 <= x(123)#123 <= 1
 0 <= x(124)#124 <= 1
 0 <= x(125)#125 <= 1
 0 <= x(126)#126 <= 1
 0 <= x(127)#127 <= 1
 0 <= x(128)#128 <= 1
 0 <= x(129)#129 <= 1
 0 <= x(130)#130 <= 1
 0 <= x(131)#131 <= 1
 0 <= x(132)#132 <= 1
 0 <= x(133)#133 <= 1
 0 <= x(134)#134 <= 1
 0 <= x(135)#135 <= 1
 0 <= x(136)#136 <= 1
 0 <= x(137)#137 <= 1
 0 <= x(138)#138 <= 1
 0 <= x(139)#139 <= 1
 0 <= x(140)#140 <= 1
 0 <= x(141)#141 <= 1
 0 <= x(142)#142 <= 1
 0 <= x(143)#143 <= 1
 0 <= x(144)#144 <= 1
 0 <= x(145)#145 <= 1
 0 <= x(146)#146 <= 1
 0 <= x(147)#147 <= 1
 0 <= x(148)#148 <= 1
 0 <= x(149)#149 <= 1
 0 <= x(150)#150 <= 1
 0 <= x(151)#151 <= 1
 0 <= x(152)#152 <= 1
 0 <= x(153)#153 <= 1
 0 <= x(154)#154 <= 1
 0 <= x(155)#155 <= 1
 0 <= x(156)#156 <= 1
 0 <= x(157)#157 <= 1
 0 <= x(158)#158 <= 1
 0 <= x(159)#159 <= 1
 0 <= x(160)#160 <= 1
 0 <= x(161)#161 <= 1
 0 <= x(162)#162 <= 1
 0 <= x(163)#163 <= 1
 0 <= x(164)#164 <= 1
 0 <= x(165)#165 <= 1
 0 <= x(166)#166 <= 1
 0 <= x(167)#167 <= 1
 0 <= x(168)#168 <= 1
 0 <= x(169)#169 <= 1
 0 <= x(170)#170 <= 1
 0 <= x(171)#171 <= 1
 0 <= x(172)#172 <= 1
 0 <= x(173)#173 <= 1
 0 <= x(174)#174 <= 1
 0 <= x(175)#175 <= 1
 0 <= x(176)#176 <= 1
 0 <= x(177)#177 <= 1
 0 <= x(178)#178 <= 1
 0 <= x(179)#179 <= 1
 0 <= x(180)#180 <= 1
 0 <= x(181)#181 <= 1
 0 <= x(182)#182 <= 1
 0 <= x(183)#183 <= 1
 0 <= x(184)#184 <= 1
 0 <= x(185)#185 <= 1
 0 <= x(186)#186 <= 1
 0 <= x(187)#187 <= 1
 0 <= x(188)#188 <= 1
 0 <= x(189)#189 <= 1
 0 <= x(190)#190 <= 1
 0 <= x(191)#191 <= 1
 0 <= x(192)#192 <= 1
 0 <= x(193)#193 <= 1
 0 <= x(194)#194 <= 1
 0 <= x(195)#195 <= 1
 0 <= x(196)#196 <= 1
 0 <= x(197)#197 <= 1
 0 <= x(198)#198 <= 1
 0 <= x(199)#199 <= 1
 0 <= x(200)#200 <= 1
 0 <= x(201)#201 <= 1
 0 <= x(202)#202 <= 1
 0 <= x(203)#203 <= 1
 0 <= x(204)#204 <= 1
 0 <= x(205)#205 <= 1
 0 <= x(206)#206 <= 1
 0 <= x(207)#207 <= 1
 0 <= x(208)#208 <= 1
 0 <= x(209)#209 <= 1
 0 <= x(210)#210 <= 1
 0 <= x(211)#211 <= 1
 0 <= x(212)#212 <= 1
 0 <= x(213)#213 <= 1
 0 <= x(214)#214 <= 1
 0 <= x(215)#215 <= 1
 0 <= x(216)#216 <= 1
 0 <= x(217)#217 <= 1
 0 <= x(218)#218 <= 1
 0 <= x(219)#219 <= 1
 0 <= x(220)#220 <= 1
 0 <= x(221)#221 <= 1
 0 <= x(222)#222 <= 1
 0 <= x(223)#223 <= 1
 0 <= x(224)#224 <= 1
 0 <= x(225)#225 <= 1
 0 <= x(226)#226 <= 1
 0 <= x(227)#227 <= 1
 0 <= x(228)#228 <= 1
 0 <= x(229)#229 <= 1
 0 <= x(230)#230 <= 1
 0 <= x(231)#231 <= 1
 0 <= x(232)#232 <= 1
 0 <= x(233)#233 <= 1
 0 <= x(234)#234 <= 1
 0 <= x(235)#235 <= 1
 0 <= x(236)#236 <= 1
 0 <= x(237)#237 <= 1
 0 <= x(238)#238 <= 1
 0 <= x(239)#239 <= 1
 0 <= x(240)#240 <= 1
 0 <= x(241)#241 <= 1
 0 <= x(242)#242 <= 1
 0 <= x(243)#243 <= 1
 0 <= x(244)#244 <= 1
 0 <= x(245)#245 <= 1
 0 <= x(246)#246 <= 1
 0 <= x(247)#247 <= 1
 0 <= x(248)#248 <= 1
 0 <= x(249)#249 <= 1
Generals
 x(0)#0  x(1)#1  x(2)#2  x(3)#3  x(4)#4  x(5)#5  x(6)#6  x(7)#7  x(8)#8 
 x(9)#9  x(10)#10  x(11)#11  x(12)#12  x(13)#13  x(14)#14  x(15)#15  x(16)#16 
 x(17)#17  x(18)#18  x(19)#19  x(20)#20  x(21)#21  x(22)#22  x(23)#23 
 x(24)#24  x(25)#25  x(26)#26  x(27)#27  x(28)#28  x(29)#29  x(30)#30 
 x(31)#31  x(32)#32  x(33)#33  x(34)#34  x(35)#35  x(36)#36  x(37)#37 
 x(38)#38  x(39)#39  x(40)#40  x(41)#41  x(42)#42  x(43)#43  x(44)#44 
 x(45)#45  x(46)#46  x(47)#47  x(48)#48  x(49)#49  x(50)#50  x(51)#51 
 x(52)#52  x(53)#53  x(54)#54  x(55)#55  x(56)#56  x(57)#57  x(58)#58 
 x(59)#59  x(60)#60  x(61)#61  x(62)#62  x(63)#63  x(64)#64  x(65)#65 
 x(66)#66  x(67)#67  x(68)#68  x(69)#69  x(70)#70  x(71)#71  x(72)#72 
 x(73)#73  x(74)#74  x(75)#75  x(76)#76  x(77)#77  x(78)#78  x(79)#79 
 x(80)#80  x(81)#81  x(82)#82  x(83)#83  x(84)#84  x(85)#85  x(86)#86 
 x(87)#87  x(88)#88  x(89)#89  x(90)#90  x(91)#91  x(92)#92  x(93)#93 
 x(94)#94  x(95)#95  x(96)#96  x(97)#97  x(98)#98  x(99)#99  x(100)#100 
 x(101)#101  x(102)#102  x(103)#103  x(104)#104  x(105)#105  x(106)#106 
 x(107)#107  x(108)#108  x(109)#109  x(110)#110  x(111)#111  x(112)#112 
 x(113)#113  x(114)#114  x(115)#115  x(116)#116  x(117)#117  x(118)#118 
 x(119)#119  x(120)#120  x(121)#121  x(122)#122  x(123)#123  x(124)#124 
 x(125)#125  x(126)#126  x(127)#127  x(128)#128  x(129)#129  x(130)#130 
 x(131)#131  x(132)#132  x(133)#133  x(134)#134  x(135)#135  x(136)#136 
 x(137)#137  x(138)#138  x(139)#139  x(140)#140  x(141)#141  x(142)#142 
 x(143)#143  x(144)#144  x(145)#145  x(146)#146  x(147)#147  x(148)#148 
 x(149)#149  x(150)#150  x(151)#151  x(152)#152  x(153)#153  x(154)#154 
 x(155)#155  x(156)#156  x(157)#157  x(158)#158  x(159)#159  x(160)#160 
 x(161)#161  x(162)#162  x(163)#163  x(164)#164  x(165)#165  x(166)#166 
 x(167)#167  x(168)#168  x(169)#169  x(170)#170  x(171)#171  x(172)#172 
 x(173)#173  x(174)#174  x(175)#175  x(176)#176  x(177)#177  x(178)#178 
 x(179)#179  x(180)#180  x(181)#181  x(182)#182  x(183)#183  x(184)#184 
 x(185)#185  x(186)#186  x(187)#187  x(188)#188  x(189)#189  x(190)#190 
 x(191)#191  x(192)#192  x(193)#193  x(194)#194  x(195)#195  x(196)#196 
 x(197)#197  x(198)#198  x(199)#199  x(200)#200  x(201)#201  x(202)#202 
 x(203)#203  x(204)#204  x(205)#205  x(206)#206  x(207)#207  x(208)#208 
 x(209)#209  x(210)#210  x(211)#211  x(212)#212  x(213)#213  x(214)#214 
 x(215)#215  x(216)#216  x(217)#217  x(218)#218  x(219)#219  x(220)#220 
 x(221)#221  x(222)#222  x(223)#223  x(224)#224  x(225)#225  x(226)#226 
 x(227)#227  x(228)#228  x(229)#229  x(230)#230  x(231)#231  x(232)#232 
 x(233)#233  x(234)#234  x(235)#235  x(236)#236  x(237)#237  x(238)#238 
 x(239)#239  x(240)#240  x(241)#241  x(242)#242  x(243)#243  x(244)#244 
 x(245)#245  x(246)#246  x(247)#247  x(248)#248  x(249)#249 
End
